c File: instances/38_0.50_1.col
c
c Description: Random graph of size 38 vertices and P(0.49999999999999994) of edges between any two vertices.
p col 38 703
e 1 3
e 1 4
e 1 9
e 1 10
e 1 15
e 1 16
e 1 17
e 1 18
e 1 19
e 1 20
e 1 22
e 1 24
e 1 25
e 1 26
e 1 29
e 1 30
e 1 31
e 1 32
e 1 33
e 1 34
e 1 35
e 1 36
e 1 37
e 1 38
e 2 3
e 2 4
e 2 8
e 2 9
e 2 10
e 2 12
e 2 17
e 2 21
e 2 22
e 2 23
e 2 25
e 2 27
e 2 29
e 2 32
e 2 34
e 2 36
e 2 38
e 3 4
e 3 7
e 3 9
e 3 10
e 3 12
e 3 13
e 3 14
e 3 16
e 3 18
e 3 19
e 3 21
e 3 23
e 3 25
e 3 26
e 3 28
e 3 29
e 3 31
e 3 38
e 4 5
e 4 6
e 4 7
e 4 9
e 4 10
e 4 11
e 4 13
e 4 14
e 4 15
e 4 16
e 4 17
e 4 18
e 4 19
e 4 23
e 4 27
e 4 29
e 4 30
e 4 34
e 4 37
e 4 38
e 5 6
e 5 7
e 5 9
e 5 10
e 5 11
e 5 13
e 5 15
e 5 16
e 5 17
e 5 18
e 5 19
e 5 20
e 5 21
e 5 24
e 5 27
e 5 28
e 5 31
e 5 33
e 6 9
e 6 10
e 6 17
e 6 18
e 6 21
e 6 23
e 6 24
e 6 29
e 6 30
e 6 31
e 6 32
e 6 33
e 6 34
e 6 35
e 6 36
e 7 10
e 7 11
e 7 14
e 7 15
e 7 21
e 7 24
e 7 25
e 7 27
e 7 30
e 7 32
e 7 38
e 8 10
e 8 12
e 8 15
e 8 18
e 8 19
e 8 20
e 8 21
e 8 23
e 8 26
e 8 27
e 8 28
e 8 33
e 8 35
e 8 36
e 8 38
e 9 10
e 9 14
e 9 15
e 9 18
e 9 20
e 9 21
e 9 22
e 9 23
e 9 28
e 9 31
e 9 32
e 9 34
e 9 35
e 9 37
e 9 38
e 10 12
e 10 13
e 10 16
e 10 17
e 10 20
e 10 23
e 10 24
e 10 26
e 10 32
e 10 33
e 10 38
e 11 12
e 11 16
e 11 17
e 11 20
e 11 22
e 11 24
e 11 25
e 11 26
e 11 27
e 11 29
e 11 30
e 11 32
e 11 34
e 12 15
e 12 16
e 12 18
e 12 19
e 12 20
e 12 23
e 12 24
e 12 26
e 12 28
e 12 30
e 12 34
e 12 36
e 12 37
e 13 17
e 13 20
e 13 21
e 13 22
e 13 23
e 13 25
e 13 28
e 13 29
e 13 30
e 13 31
e 13 32
e 13 33
e 13 34
e 13 36
e 13 37
e 14 15
e 14 16
e 14 17
e 14 19
e 14 21
e 14 25
e 14 29
e 14 31
e 14 37
e 15 16
e 15 17
e 15 18
e 15 24
e 15 25
e 15 27
e 15 28
e 15 30
e 15 32
e 15 34
e 15 37
e 16 17
e 16 18
e 16 22
e 16 23
e 16 27
e 16 28
e 16 30
e 16 31
e 16 33
e 16 34
e 16 35
e 16 37
e 16 38
e 17 18
e 17 19
e 17 21
e 17 22
e 17 23
e 17 25
e 17 26
e 17 27
e 17 33
e 17 34
e 17 35
e 18 19
e 18 20
e 18 21
e 18 22
e 18 23
e 18 24
e 18 26
e 18 27
e 18 29
e 18 30
e 18 31
e 18 34
e 18 35
e 18 36
e 19 22
e 19 25
e 19 30
e 19 31
e 19 33
e 19 34
e 19 35
e 19 36
e 19 37
e 20 25
e 20 26
e 20 29
e 20 32
e 20 34
e 20 35
e 20 38
e 21 23
e 21 24
e 21 29
e 21 30
e 21 31
e 21 34
e 21 35
e 22 24
e 22 25
e 22 26
e 22 30
e 22 32
e 22 34
e 22 37
e 22 38
e 23 24
e 23 25
e 23 26
e 23 28
e 23 29
e 23 32
e 23 34
e 23 36
e 24 25
e 24 26
e 24 27
e 24 30
e 24 31
e 24 33
e 24 36
e 25 26
e 25 27
e 25 28
e 25 35
e 25 36
e 25 37
e 25 38
e 26 30
e 26 33
e 26 34
e 26 37
e 27 28
e 27 30
e 27 32
e 27 33
e 27 35
e 27 36
e 27 37
e 28 30
e 28 31
e 28 33
e 28 34
e 28 36
e 28 38
e 29 30
e 29 31
e 29 32
e 29 36
e 29 37
e 29 38
e 30 31
e 30 33
e 30 36
e 30 37
e 31 32
e 31 33
e 31 34
e 31 35
e 31 37
e 31 38
e 32 33
e 32 38
e 33 34
e 33 35
e 33 36
e 33 37
e 34 35
e 34 36
e 34 37
e 35 37
e 36 37
e 36 38